Route #1: 1 10 52 40 12 61 32 53 58 1
Route #2: 1 15 24 8 20 16 1
Route #3: 1 56 51 14 18 29 45 2 1
Route #4: 1 35 49 36 19 48 57 22 30 37 28 1
Route #5: 1 59 26 41 54 9 7 47 34 1
Route #6: 1 43 33 44 27 5 23 13 1
Route #7: 1 25 4 11 60 38 46 50 1
Route #8: 1 42 21 6 55 3 1
Route #9: 1 39 31 1
cost 1178.246025088397
